# Geometry optimization H
! HF SP Def2-SVP

* int 0 2
H 0 0 0 0 0 0
*