# Geometry optimization CH3OH
! UHF opt Def2-SVP

* int 0 2
C 0 0 0 0 0 0
O 1 0 0 1 0 0
H 1 2 3 1 120 0
H 1 2 3 1 120 120
H 1 2 3 1 120 240
*