! def2-SVP Grid4 B3LYP OptTS Freq
%geom
    Calc_Hess true #Calculates the exact Hessian before optimization. 
end
* xyzfile -1 1 Step4/Cl-_CH3Br_TS_init.xyz
