! Grid4 B3LYP def2-svp opt freq

* xyzfile -1 1 Step2/CH3Cl_Br-_init.xyz
