! Grid4 B3LYP def2-svp opt freq

* xyzfile -1 1 Step2\Cl-_CH3Br_init.xyz
