# Geometry optimization OH
! B3LYP Grid4 opt Def2-SVP

* int 0 2
O 0 0 0 0 0 0
H 1 0 0 1 0 0
*