# Geometry optimization HOH
! B3LYP Grid4 opt Def2-SVP

* int 0 1
O 0 0 0 0 0 0
H 1 0 0 1 0 0
H 1 2 0 1 120 0
*