! def2-TZVPD Grid4 B3LYP SP

* xyzfile -1 1 Step4/[Cl_CH3_Br]-.xyz
