! Grid4 B3LYP def2-TZVPD SP

* xyzfile 0 1 Step1\CH3Cl.xyz
