! Grid4 B3LYP def2-TZVPD SP

* xyzfile -1 1 Step2/CH3Cl_Br-.xyz
