! Grid4 B3LYP Def2-TZVPD SP

* xyzfile -1 1 Initial_Geometries\Cl-.xyz
