! Grid4 B3LYP def2-TZVPD SP

* xyzfile -1 1 Step2/Cl-_CH3Br.xyz
