# avogadro generated ORCA input file 
# Basic Mode
# 
! Grid4 B3LYP opt def2-SVP freq

* xyz 0 1
   C       -0.00000       -0.00000        0.00000
   O        1.19600        0              0
   O       -1.19600        0              0
*

