# avogadro generated ORCA input file 
# Basic Mode
# 
! Grid4 B3LYP Def2-SVP opt freq

* xyz 0 1
   O       0               0              0
   H       -1              1              0
   H       1               1              0
*

