# avogadro generated ORCA input file 
# Basic Mode
# 
! Grid4 B3LYP Def2-SVP opt freq

* xyz 0 3
   N       0        0        0.00000
   N       1        0        0.00000
*

