! def2-TZVPD Grid4 B3LYP SP CPCM(DMF)

* xyzfile 0 1 Step1/CH3Cl.xyz
