! def2-TZVPD Grid4 B3LYP SP CPCM(DMF)

* xyzfile -1 1 Initial_Geometries/Cl-.xyz
