! def2-SVP B3LYP Opt 
%geom 
  Scan B 0 5 = 2.9, 1.9, 6
  end 
end
* xyzfile -1 1 Step2/Cl-_CH3Br.xyz
