# Geometry optimization H
! B3LYP Grid4 SP Def2-SVP

* int 0 2
F 0 0 0 0 0 0
*