# Geometry optimization N2
! HF opt Def2-SVP

* int 0 1
N 0 0 0 0 0 0
N 1 0 0 1 0 0
*