! Grid4 B3LYP def2-svp SP freq

* xyzfile -1 1 Initial_Geometries/Br-.xyz

