! Grid4 B3LYP def2-svp opt freq

* xyzfile 0 1 Initial_Geometries\CH3Br.xyz
