# avogadro generated ORCA input file 
# Basic Mode
# 

! Grid4 B3LYP ROKS def2-SVP SP
%output
print[P_basis] 2
print[P_mos] 1
end

* xyzfile 0 1 O2_S=0_geoopt.xyz

