# Geometry optimization CH2CHOH
! HF opt Def2-SVP

* int 0 1
C 0 0 0 0 0 0
C 1 0 0 1 0 0
O 1 2 0 1 120 0
H 3 2 1 1 120 0
H 2 1 3 1 120 0
H 2 1 3 1 240 0
H 1 2 3 1 240 0
*