# Geometry optimization H
! HF SP Def2-SVP

* int 0 4
N 0 0 0 0 0 0
*