# avogadro generated ORCA input file 
# Basic Mode
# 
! Grid4 B3LYP def2-svp opt freq

* xyz 0 1
   O   	0.0000 	 0.0000 	 0.1173
   H  	0.0000 	 0.7572 	-0.4692
   H  	0.0000 	-0.7572 	-0.4692
*

