# avogadro generated ORCA input file 
# Basic Mode
# 
! Grid4 B3LYP def2-svp opt freq


* xyz 0 3
   O 	0.0000 	0.0000 	0.60375
   O 	0.0000 	0.0000 	-0.60375
*

