# Geometry optimization F2
! UHF opt Def2-SVP

* int 0 1
F 0 0 0 0 0 0
F 1 0 0 1 0 0
*